sat
(model 
  (define-fun q1 () Quantifier
    all)
  (define-fun arg1_2 () Binding
    bind_x1)
  (define-fun arg1_1 () Binding
    bind_x2)
  (define-fun n1 () IfNeg
    yes)
  (define-fun q2 () Quantifier
    all)
  (define-fun r1 () Rels
    toLeft)
)
